
Gurobi 11.0.2 (linux64) logging started Tue 03 Dec 2024 09:05:54 AM CET

Set parameter LogFile to value "./res/knapPI_11_50_1000/knapPI_11_50_1000_60/grb_dom.log"
Set parameter Presolve to value 0
Set parameter Aggregate to value 0
Set parameter Heuristics to value 0
Set parameter LPWarmStart to value 0
Set parameter NLPHeur to value 0
Set parameter PreDepRow to value 0
Set parameter PreDual to value 0
Set parameter RINS to value 0
Set parameter Symmetry to value 0
Set parameter NodeLimit to value 1
Set parameter Threads to value 1

Gurobi 11.0.2 (linux64) logging started Tue 03 Dec 2024 09:05:55 AM CET

Set parameter LogFile to value "./res/knapPI_11_50_1000/knapPI_11_50_1000_60/grb_dom.log"
Set parameter NLPHeur to value 0
Set parameter LPWarmStart to value 0
Set parameter PreDepRow to value 0
Set parameter Symmetry to value 0
Set parameter Presolve to value 0
Gurobi Optimizer version 11.0.2 build v11.0.2rc0 (linux64 - "Pop!_OS 20.04 LTS")

CPU model: Intel(R) Core(TM) i7-8650U CPU @ 1.90GHz, instruction set [SSE2|AVX|AVX2]
Thread count: 4 physical cores, 4 logical processors, using up to 1 threads

Optimize a model with 10392 rows, 50 columns and 104332 nonzeros
Model fingerprint: 0xa3ad654f
Variable types: 0 continuous, 50 integer (50 binary)
Coefficient statistics:
  Matrix range     [1e+00, 2e+03]
  Objective range  [8e+01, 9e+02]
  Bounds range     [0e+00, 0e+00]
  RHS range        [2e+04, 2e+04]
Variable types: 0 continuous, 50 integer (50 binary)

Root relaxation: objective 1.605907e+04, 1 iterations, 0.03 seconds (0.00 work units)

    Nodes    |    Current Node    |     Objective Bounds      |     Work
 Expl Unexpl |  Obj  Depth IntInf | Incumbent    BestBd   Gap | It/Node Time

     0     0 16059.0723    0    1          - 16059.0723      -     -    0s
     0     0 16059.0723    0    1          - 16059.0723      -     -    0s
     0     0 16059.0723    0    2          - 16059.0723      -     -    0s
     0     0 16059.0723    0    3          - 16059.0723      -     -    0s
*    0     0               0    16024.000000 16024.0000  0.00%     -    0s

Cutting planes:
  Gomory: 1
  MIR: 1
  RLT: 1

Explored 1 nodes (7 simplex iterations) in 0.32 seconds (0.09 work units)
Thread count was 1 (of 4 available processors)

Solution count 1: 16024 

Optimal solution found (tolerance 1.00e-04)
Best objective 1.602400000000e+04, best bound 1.602400000000e+04, gap 0.0000%

User-callback calls 146, time in user-callback 0.00 sec
opt = true
obj = 16024.0
nb_dom_cuts = 10391
solved_time = 0.3178
opt_val = 16024.0
